experiment/data/hgs-res/Vrp-Set-B-n41/Vrp-Set-B-n41-hgs/0.hgs1.vrp
NAME : 0
COMMENT : CVRP Instance
TYPE : CVRP
DIMENSION : 41
EDGE_WEIGHT_TYPE : EUC_2D
CAPACITY : 100
NODE_COORD_SECTION
1	37.0	35.0
2	61.0	78.0
3	18.0	33.0
4	10.0	7.0
5	48.0	26.0
6	96.0	58.0
7	16.0	97.0
8	102.0	67.0
9	97.0	67.0
10	20.0	17.0
11	110.0	77.0
12	26.0	101.0
13	102.0	74.0
14	98.0	64.0
15	71.0	82.0
16	101.0	60.0
17	104.0	69.0
18	70.0	85.0
19	17.0	9.0
20	56.0	34.0
21	105.0	69.0
22	20.0	8.0
23	103.0	63.0
24	105.0	76.0
25	25.0	35.0
26	28.0	43.0
27	58.0	36.0
28	56.0	32.0
29	65.0	87.0
30	70.0	80.0
31	100.0	65.0
32	102.0	61.0
33	99.0	73.0
34	24.0	103.0
35	26.0	107.0
36	21.0	39.0
37	99.0	71.0
38	20.0	16.0
39	56.0	30.0
40	51.0	31.0
41	106.0	70.0
DEMAND_SECTION
1	0
2	6
3	11
4	14
5	7
6	12
7	16
8	6
9	18
10	7
11	20
12	7
13	23
14	16
15	10
16	9
17	18
18	8
19	15
20	9
21	23
22	7
23	15
24	14
25	21
26	25
27	14
28	11
29	19
30	12
31	8
32	25
33	17
34	22
35	11
36	16
37	16
38	8
39	23
40	15
41	13
DEPOT_SECTION
1
-1
EOF
