experiment/data/hgs-res/Vrp-Set-B-n41/Vrp-Set-B-n41-hgs/0.hgs1.log
=========== Algorithm Parameters =================
---- nbGranular        is set to 20
---- mu                is set to 25
---- lambda            is set to 40
---- nbElite           is set to 4
---- nbClose           is set to 5
---- targetFeasible    is set to 0.2
---- seed              is set to 1234
---- nbIter            is set to 20000
---- timeLimit         is set to 0
---- useSwapStar       is set to 1
==================================================
----- READING INSTANCE: baseline_results/cvrp_hgs/Vrp-Set-B-n41/Vrp-Set-B-n41-hgs/0.hgs1.vrp
----- FLEET SIZE WAS NOT SPECIFIED: DEFAULT INITIALIZATION TO 11 VEHICLES
----- INSTANCE SUCCESSFULLY LOADED WITH 40 CLIENTS AND 11 VEHICLES
----- BUILDING INITIAL POPULATION
----- STARTING GENETIC ALGORITHM
It      0      2 | T(s) 0.03 | Feas 52 833.66 841.99 | Inf 17 835.02 850.27 | Div 0.34 0.47 | Feas 0.83 1.00 | Pen 4.15 0.85
It    500    502 | T(s) 0.15 | Feas 53 833.66 834.55 | Inf 56 807.84 814.92 | Div 0.21 0.22 | Feas 0.31 1.00 | Pen 1.84 0.38
It   1000   1002 | T(s) 0.29 | Feas 62 833.66 834.63 | Inf 29 794.21 814.53 | Div 0.20 0.34 | Feas 0.34 1.00 | Pen 1.63 0.17
It   1500   1502 | T(s) 0.43 | Feas 48 833.66 834.70 | Inf 64 796.30 808.29 | Div 0.22 0.22 | Feas 0.27 1.00 | Pen 1.66 0.10
It   2000   2002 | T(s) 0.57 | Feas 48 833.66 835.19 | Inf 63 817.78 819.10 | Div 0.26 0.20 | Feas 0.19 1.00 | Pen 2.03 0.10
It   2500   2502 | T(s) 0.70 | Feas 61 833.66 834.48 | Inf 40 802.80 813.53 | Div 0.20 0.29 | Feas 0.18 1.00 | Pen 1.76 0.10
It   3000   3002 | T(s) 0.84 | Feas 34 833.66 835.58 | Inf 62 807.36 811.46 | Div 0.28 0.17 | Feas 0.23 1.00 | Pen 1.83 0.10
It   3500   3502 | T(s) 0.97 | Feas 49 833.66 835.20 | Inf 43 807.36 812.60 | Div 0.26 0.22 | Feas 0.24 1.00 | Pen 1.83 0.10
It   4000   4002 | T(s) 1.11 | Feas 53 833.66 834.97 | Inf 63 812.25 817.48 | Div 0.22 0.21 | Feas 0.33 1.00 | Pen 1.91 0.10
It   4500   4502 | T(s) 1.25 | Feas 35 833.66 837.31 | Inf 53 814.54 816.95 | Div 0.33 0.22 | Feas 0.19 1.00 | Pen 1.95 0.10
It   5000   5002 | T(s) 1.39 | Feas 47 833.66 835.04 | Inf 42 814.54 819.62 | Div 0.24 0.29 | Feas 0.25 1.00 | Pen 1.95 0.10
It   5500   5502 | T(s) 1.53 | Feas 44 833.66 835.13 | Inf 25 817.72 829.37 | Div 0.26 0.40 | Feas 0.09 1.00 | Pen 2.02 0.10
It   6000   6002 | T(s) 1.67 | Feas 31 833.66 835.70 | Inf 45 818.37 820.74 | Div 0.29 0.26 | Feas 0.30 1.00 | Pen 2.11 0.10
It   6500   6502 | T(s) 1.80 | Feas 59 833.66 835.12 | Inf 61 818.71 819.63 | Div 0.24 0.19 | Feas 0.25 1.00 | Pen 2.15 0.10
It   7000   7002 | T(s) 1.94 | Feas 61 833.66 834.82 | Inf 49 819.05 823.15 | Div 0.22 0.26 | Feas 0.12 1.00 | Pen 2.19 0.10
It   7500   7502 | T(s) 2.07 | Feas 65 833.66 834.56 | Inf 33 819.40 825.33 | Div 0.20 0.32 | Feas 0.22 1.00 | Pen 2.24 0.10
It   8000   8002 | T(s) 2.21 | Feas 34 833.66 836.90 | Inf 53 814.04 816.26 | Div 0.32 0.20 | Feas 0.10 1.00 | Pen 1.94 0.10
It   8500   8502 | T(s) 2.34 | Feas 38 833.66 835.68 | Inf 65 797.54 806.31 | Div 0.28 0.20 | Feas 0.26 1.00 | Pen 1.68 0.10
It   9000   9002 | T(s) 2.48 | Feas 41 833.66 835.89 | Inf 61 818.30 821.13 | Div 0.29 0.21 | Feas 0.10 1.00 | Pen 2.10 0.10
It   9500   9502 | T(s) 2.62 | Feas 54 833.66 834.88 | Inf 31 814.20 821.11 | Div 0.23 0.34 | Feas 0.30 1.00 | Pen 1.82 0.10
It  10000  10002 | T(s) 2.76 | Feas 41 833.66 835.32 | Inf 56 790.92 801.24 | Div 0.27 0.19 | Feas 0.28 1.00 | Pen 1.58 0.10
It  10500  10502 | T(s) 2.90 | Feas 47 833.66 834.74 | Inf 57 811.11 814.93 | Div 0.22 0.19 | Feas 0.22 1.00 | Pen 1.89 0.10
It  11000  11002 | T(s) 3.04 | Feas 63 833.66 834.84 | Inf 40 816.00 819.25 | Div 0.22 0.26 | Feas 0.11 1.00 | Pen 1.97 0.10
It  11500  11502 | T(s) 3.18 | Feas 48 833.66 835.57 | Inf 26 817.59 828.15 | Div 0.27 0.41 | Feas 0.13 1.00 | Pen 2.01 0.10
It  12000  12002 | T(s) 3.31 | Feas 58 833.66 834.69 | Inf 43 817.91 821.37 | Div 0.22 0.28 | Feas 0.24 1.00 | Pen 2.05 0.10
It  12500  12502 | T(s) 3.44 | Feas 54 833.66 834.81 | Inf 27 801.42 821.31 | Div 0.22 0.40 | Feas 0.19 1.00 | Pen 1.74 0.10
It  13000  13002 | T(s) 3.58 | Feas 35 833.66 837.18 | Inf 45 803.65 811.29 | Div 0.33 0.25 | Feas 0.22 1.00 | Pen 1.78 0.10
It  13500  13502 | T(s) 3.72 | Feas 46 833.66 835.05 | Inf 38 805.93 814.79 | Div 0.25 0.28 | Feas 0.17 1.00 | Pen 1.81 0.10
It  14000  14002 | T(s) 3.86 | Feas 54 833.66 834.85 | Inf 38 805.93 816.65 | Div 0.23 0.31 | Feas 0.19 1.00 | Pen 1.81 0.10
It  14500  14502 | T(s) 4.00 | Feas 26 833.66 838.13 | Inf 35 805.93 816.54 | Div 0.38 0.31 | Feas 0.19 1.00 | Pen 1.81 0.10
It  15000  15002 | T(s) 4.14 | Feas 42 833.66 836.47 | Inf 31 808.25 818.55 | Div 0.30 0.32 | Feas 0.05 1.00 | Pen 1.85 0.10
It  15500  15502 | T(s) 4.28 | Feas 42 833.66 835.34 | Inf 64 813.02 814.80 | Div 0.27 0.14 | Feas 0.08 1.00 | Pen 1.92 0.10
It  16000  16002 | T(s) 4.42 | Feas 27 833.66 840.29 | Inf 42 798.79 812.35 | Div 0.42 0.27 | Feas 0.31 1.00 | Pen 1.70 0.10
It  16500  16502 | T(s) 4.56 | Feas 42 833.66 835.36 | Inf 65 803.19 812.88 | Div 0.27 0.21 | Feas 0.29 1.00 | Pen 1.77 0.10
It  17000  17002 | T(s) 4.69 | Feas 54 833.66 835.16 | Inf 43 805.45 817.03 | Div 0.24 0.27 | Feas 0.27 1.00 | Pen 1.80 0.10
It  17500  17502 | T(s) 4.83 | Feas 56 833.66 834.75 | Inf 34 805.45 818.18 | Div 0.22 0.32 | Feas 0.20 1.00 | Pen 1.80 0.10
It  18000  18002 | T(s) 4.97 | Feas 25 833.66 837.98 | Inf 64 819.19 821.84 | Div 0.37 0.24 | Feas 0.15 1.00 | Pen 2.21 0.10
It  18500  18502 | T(s) 5.10 | Feas 41 833.66 835.30 | Inf 36 810.12 819.23 | Div 0.27 0.31 | Feas 0.22 1.00 | Pen 1.88 0.10
It  19000  19002 | T(s) 5.24 | Feas 48 833.66 835.43 | Inf 64 812.52 815.07 | Div 0.25 0.17 | Feas 0.05 1.00 | Pen 1.91 0.10
It  19500  19502 | T(s) 5.38 | Feas 29 833.66 836.76 | Inf 43 796.22 805.65 | Div 0.33 0.23 | Feas 0.17 1.00 | Pen 1.66 0.10
----- GENETIC ALGORITHM FINISHED AFTER 20000 ITERATIONS. TIME SPENT: 5.51962
----- WRITING BEST SOLUTION IN : baseline_results/cvrp_hgs/Vrp-Set-B-n41/Vrp-Set-B-n41-hgs/0.hgs1.tour
