experiment/data/hgs-res/Vrp-Set-B-n41/Vrp-Set-B-n41-hgs/0.hgs1.tour
Route #1: 24 35 2 3 18 21 37 9
Route #2: 4 38 27 26 19 39
Route #3: 5 15 31 22 13 8
Route #4: 7 20 40 10 23 12
Route #5: 30 16 36 32 17 14 29 1
Route #6: 25 6 11 33 34 28
Cost 833.664
